NAME : rc206.0.8352322.tour
COMMENT : Length = 8352322
COMMENT : Found by LKH [Keld Helsgaun] Tue May  2 05:20:29 2017
TYPE : TOUR
DIMENSION : 36
TOUR_SECTION
1
2
17
3
16
15
26
12
11
10
13
14
22
30
25
24
35
33
36
23
20
31
19
9
8
7
32
4
18
6
28
21
27
5
34
29
-1
EOF
